
Gurobi 9.5.0 (win64) logging started Thu Jun 16 15:45:00 2022

Set parameter LogFile to value "../results/logs/log_soc-karate_2_1_2022_06_16_15_45.log"
Gurobi Optimizer version 9.5.0 build v9.5.0rc5 (win64)
Thread count: 6 physical cores, 12 logical processors, using up to 12 threads
Optimize a model with 1 rows, 68 columns and 1 nonzeros
Model fingerprint: 0xaf06ac15
Variable types: 0 continuous, 68 integer (68 binary)
Coefficient statistics:
  Matrix range     [1e+00, 1e+00]
  Objective range  [1e+00, 1e+00]
  Bounds range     [1e+00, 1e+00]
  RHS range        [1e+00, 1e+00]
Found heuristic solution: objective 33.0000000

Explored 0 nodes (0 simplex iterations) in 0.00 seconds (0.00 work units)
Thread count was 1 (of 12 available processors)

Solution count 1: 33 

Optimal solution found (tolerance 0.00e+00)
Best objective 3.300000000000e+01, best bound 3.300000000000e+01, gap 0.0000%
